Q:[
30000 50000	50000	100000 100000
]

q:
[
0
7000
7000
7000
7000
8000
8000
9000
9000
9000
9000
9000
9000
9000
9000
10000
10000
10000
10000
10000
10000
11000
11000
11000
11000
11000]

L:
[
30000	25000	25000	20000	20000
30000	25000	25000	20000	20000
30000	25000	25000	20000	20000
30000	25000	25000	20000	20000
30000	50000	50000	60000	60000
30000	50000	50000	60000	60000
30000	50000	50000	60000	60000
30000	50000	50000	60000	60000
30000	50000	50000	60000	60000
30000	50000	50000	60000	60000
30000	50000	50000	60000	60000
30000	50000	50000	60000	60000
30000	50000	50000	100000	100000
30000	50000	50000	100000	100000
30000	50000	50000	100000	100000
30000	50000	50000	100000	100000
30000	50000	50000	100000	100000
30000	50000	50000	100000	100000
30000	50000	50000	100000	100000
30000	50000	50000	100000	100000
30000	50000	50000	100000	100000
30000	50000	50000	100000	100000
30000	50000	50000	100000	100000
30000	50000	50000	100000	100000
30000	50000	50000	100000	100000

]

coord:
[
0	0
24	8
35	33
5	6
29	8
51	75
30	61
79	53
69	55
20	39
82	36
37	94
58	95
83	60
17	78
16	39
7	77
5	69
86	42
41	3
97	82
57	78
80	49
29	74
17	76
77	90
]



c:[1 1.3 1.3 2 2]

r:[
 2  3   3   5   5
10  10  10  10  10
5   7   7   10  10
10  10  10  10  10
10  10  10  10  10
5   7   7   10  10
2   3   3   5   5
2   3   3   5   5
1   2   2   5   5
2   3   3   5   5
3   5   5   7   7
10  10  10  10  10
5   7   7   10  10
10  10  10  10  10
10  10  10  10  10
10  10  10  10  10
5   7   7   10  10
10  10  10  10  10
10  10  10  10  10
10  10  10  10  10
5   7   7   10  10
10  10  10  10  10
10  10  10  10  10
10  10  10  10  10
10  10  10  10  10
]

